
List of user-set options:

                                    Name   Value                used
                        file_print_level = 5                     yes
                   hessian_approximation = limited-memory        yes
                           linear_solver = mumps                 yes
                      nlp_scaling_method = user-scaling          yes
                             output_file = IPOPT.out             yes
                             print_level = 0                     yes
                      print_user_options = yes                   yes
                                      sb = yes                   yes
This is Ipopt version 3.14.12, running with linear solver MUMPS 5.2.1.

Number of nonzeros in equality constraint Jacobian...:     7953
Number of nonzeros in inequality constraint Jacobian.:      398
Number of nonzeros in Lagrangian Hessian.............:        0

Total number of variables............................:      221
                     variables with only lower bounds:        0
                variables with lower and upper bounds:      221
                     variables with only upper bounds:        0
Total number of equality constraints.................:      205
Total number of inequality constraints...............:       60
        inequality constraints with only lower bounds:        0
   inequality constraints with lower and upper bounds:       60
        inequality constraints with only upper bounds:        0

iter    objective    inf_pr   inf_du lg(mu)  ||d||  lg(rg) alpha_du alpha_pr  ls
   0 -7.2400000e+02 1.08e+04 4.84e-05   0.0 0.00e+00    -  0.00e+00 0.00e+00   0
   1 -7.2277296e+02 5.99e+03 1.19e+09   4.4 2.66e+04    -  1.00e+00 4.75e-01f  1
   2 -7.2251292e+02 4.50e+03 1.05e+09   4.4 1.25e+04    -  1.00e+00 2.53e-01h  1
   3 -7.2231995e+02 4.15e+03 1.01e+09   4.0 1.20e+04    -  1.00e+00 7.75e-02h  1
   4 -7.2195609e+02 3.71e+03 9.11e+08   3.6 1.19e+04    -  1.00e+00 1.06e-01h  1
   5 -7.2123586e+02 3.10e+03 7.22e+08   5.4 1.27e+04    -  5.62e-01 1.64e-01f  1
   6 -7.2046749e+02 2.60e+03 5.48e+08   3.6 1.20e+04    -  3.47e-01 1.63e-01h  1
   7 -7.1697487e+02 9.81e+02 1.37e+07   4.6 1.04e+04    -  9.69e-01 6.38e-01h  1
   8 -7.1575461e+02 6.82e+02 1.78e+07   3.9 4.86e+03    -  1.00e+00 3.06e-01h  1
   9 -7.1177033e+02 1.12e+02 1.33e+07   3.3 4.23e+03    -  1.00e+00 1.00e+00h  1
iter    objective    inf_pr   inf_du lg(mu)  ||d||  lg(rg) alpha_du alpha_pr  ls
  10 -7.1080683e+02 7.58e+01 5.36e+05   2.7 1.31e+03    -  9.77e-01 1.00e+00h  1
  11 -7.1081379e+02 6.54e-01 4.95e+01  -3.3 1.19e+02    -  9.85e-01 1.00e+00h  1
  12 -7.1082103e+02 1.35e-03 3.62e+00  -5.1 7.24e+00    -  9.90e-01 1.00e+00h  1
  13 -7.1082148e+02 1.85e-04 1.13e-01  -2.0 1.84e+00  -4.0 9.36e-01 1.00e+00h  1
  14 -7.1082295e+02 1.71e-05 9.23e-03  -7.9 1.47e+00  -4.5 9.49e-01 1.00e+00h  1
  15 -7.1082767e+02 6.58e-04 2.34e-03  -3.4 5.00e+00  -5.0 1.00e+00 1.00e+00h  1
  16 -7.1385612e+02 5.71e+01 1.09e-01  -9.4 2.18e+05    -  6.51e-02 1.39e-02f  1
  17 -7.6487434e+02 2.51e+03 3.27e+00  -2.2 1.49e+05    -  7.04e-02 3.42e-01f  1
  18 -7.6642597e+02 1.90e+03 1.55e+00  -2.6 1.32e+04    -  1.00e+00 2.42e-01h  1
  19 -7.8375370e+02 8.97e+02 1.61e+00  -8.6 3.29e+04    -  3.06e-01 5.26e-01h  1
iter    objective    inf_pr   inf_du lg(mu)  ||d||  lg(rg) alpha_du alpha_pr  ls
  20 -7.6089388e+02 1.08e+03 5.47e+00  -3.4 2.94e+04    -  7.95e-03 7.79e-01h  1
  21 -7.5274891e+02 7.66e+02 3.74e+00  -1.7 1.34e+04    -  1.44e-02 9.72e-01h  1
  22 -7.4071114e+02 8.27e+02 1.19e+00  -1.9 1.75e+04    -  9.16e-01 6.87e-01h  1
  23 -7.2723033e+02 7.40e+01 7.08e-01  -2.2 1.35e+04    -  5.65e-01 1.00e+00h  1
  24 -7.2715884e+02 5.03e+00 1.57e-01  -2.6 3.03e+03    -  9.97e-01 1.00e+00h  1
  25 -7.2625083e+02 1.03e+00 5.56e-02  -3.5 1.17e+03    -  1.00e+00 1.00e+00h  1
  26 -7.2603874e+02 1.05e-01 3.45e-02  -5.0 5.16e+02    -  1.00e+00 1.00e+00h  1
  27 -7.2602033e+02 1.59e-02 2.31e-02  -6.2 2.65e+02    -  1.00e+00 1.00e+00h  1
  28 -7.2600524e+02 3.33e-04 1.41e-03  -8.1 2.04e+01    -  1.00e+00 1.00e+00h  1
  29 -7.2600516e+02 7.95e-06 4.52e-05 -10.1 6.26e+00    -  1.00e+00 1.00e+00h  1
iter    objective    inf_pr   inf_du lg(mu)  ||d||  lg(rg) alpha_du alpha_pr  ls
  30 -7.2600515e+02 8.43e-07 1.45e-05 -11.0 2.22e+00    -  1.00e+00 1.00e+00h  1
  31 -7.2600515e+02 9.24e-09 3.96e-09 -11.0 2.50e-01    -  1.00e+00 1.00e+00h  1

Number of Iterations....: 31

                                   (scaled)                 (unscaled)
Objective...............:  -7.2600515253582023e+02   -7.2600515253582023e+02
Dual infeasibility......:   3.9568949172273423e-09    3.9568949172273423e-09
Constraint violation....:   9.2373666477985834e-09    9.2373666477985834e-09
Variable bound violation:   2.9997378078405745e-05    2.9997378078405745e-05
Complementarity.........:   1.0000893630705489e-11    1.0000893630705489e-11
Overall NLP error.......:   9.2373666477985834e-09    9.2373666477985834e-09


Number of objective function evaluations             = 32
Number of objective gradient evaluations             = 32
Number of equality constraint evaluations            = 32
Number of inequality constraint evaluations          = 32
Number of equality constraint Jacobian evaluations   = 32
Number of inequality constraint Jacobian evaluations = 32
Number of Lagrangian Hessian evaluations             = 0
Total seconds in IPOPT                               = 21.515

EXIT: Optimal Solution Found.
